c File: data_files/evolved_graphs/g0124.col
c
c Auto generated graph
c
p edge 100 3431
e 1 2
e 1 4
e 1 5
e 1 6
e 1 7
e 1 10
e 1 11
e 1 12
e 1 13
e 1 14
e 1 15
e 1 18
e 1 21
e 1 22
e 1 23
e 1 24
e 1 26
e 1 32
e 1 34
e 1 35
e 1 36
e 1 37
e 1 38
e 1 39
e 1 40
e 1 41
e 1 42
e 1 43
e 1 44
e 1 45
e 1 47
e 1 50
e 1 52
e 1 54
e 1 55
e 1 56
e 1 57
e 1 58
e 1 59
e 1 60
e 1 61
e 1 62
e 1 63
e 1 64
e 1 65
e 1 66
e 1 67
e 1 68
e 1 69
e 1 70
e 1 71
e 1 73
e 1 74
e 1 75
e 1 76
e 1 77
e 1 78
e 1 80
e 1 81
e 1 82
e 1 84
e 1 85
e 1 86
e 1 87
e 1 88
e 1 89
e 1 90
e 1 91
e 1 92
e 1 93
e 1 94
e 1 95
e 1 96
e 1 99
e 1 100
e 2 3
e 2 4
e 2 5
e 2 6
e 2 7
e 2 10
e 2 11
e 2 13
e 2 14
e 2 16
e 2 17
e 2 18
e 2 19
e 2 20
e 2 21
e 2 22
e 2 23
e 2 24
e 2 25
e 2 28
e 2 34
e 2 35
e 2 36
e 2 37
e 2 39
e 2 40
e 2 41
e 2 42
e 2 43
e 2 44
e 2 46
e 2 47
e 2 48
e 2 49
e 2 50
e 2 51
e 2 52
e 2 53
e 2 54
e 2 55
e 2 56
e 2 57
e 2 58
e 2 60
e 2 61
e 2 62
e 2 63
e 2 64
e 2 65
e 2 66
e 2 67
e 2 68
e 2 69
e 2 70
e 2 71
e 2 74
e 2 75
e 2 76
e 2 77
e 2 78
e 2 79
e 2 80
e 2 81
e 2 82
e 2 84
e 2 85
e 2 86
e 2 87
e 2 88
e 2 89
e 2 90
e 2 91
e 2 92
e 2 93
e 2 94
e 2 95
e 2 96
e 2 98
e 2 99
e 2 100
e 3 4
e 3 5
e 3 6
e 3 7
e 3 10
e 3 11
e 3 12
e 3 14
e 3 15
e 3 19
e 3 20
e 3 21
e 3 22
e 3 23
e 3 24
e 3 28
e 3 29
e 3 30
e 3 31
e 3 32
e 3 34
e 3 35
e 3 37
e 3 38
e 3 39
e 3 40
e 3 41
e 3 43
e 3 45
e 3 46
e 3 47
e 3 48
e 3 49
e 3 52
e 3 53
e 3 54
e 3 55
e 3 56
e 3 58
e 3 59
e 3 60
e 3 61
e 3 62
e 3 63
e 3 64
e 3 65
e 3 66
e 3 67
e 3 68
e 3 69
e 3 70
e 3 71
e 3 72
e 3 73
e 3 74
e 3 75
e 3 76
e 3 77
e 3 78
e 3 79
e 3 80
e 3 81
e 3 82
e 3 84
e 3 85
e 3 87
e 3 88
e 3 89
e 3 90
e 3 91
e 3 92
e 3 93
e 3 94
e 3 96
e 3 97
e 3 99
e 3 100
e 4 5
e 4 6
e 4 10
e 4 11
e 4 12
e 4 13
e 4 14
e 4 15
e 4 18
e 4 20
e 4 21
e 4 22
e 4 26
e 4 31
e 4 32
e 4 33
e 4 34
e 4 35
e 4 36
e 4 37
e 4 38
e 4 40
e 4 41
e 4 44
e 4 45
e 4 48
e 4 50
e 4 51
e 4 53
e 4 54
e 4 55
e 4 56
e 4 57
e 4 58
e 4 59
e 4 60
e 4 61
e 4 62
e 4 63
e 4 64
e 4 65
e 4 66
e 4 67
e 4 68
e 4 69
e 4 70
e 4 71
e 4 74
e 4 75
e 4 76
e 4 77
e 4 80
e 4 83
e 4 85
e 4 86
e 4 87
e 4 89
e 4 90
e 4 91
e 4 92
e 4 93
e 4 95
e 4 96
e 4 97
e 4 98
e 4 99
e 4 100
e 5 6
e 5 10
e 5 11
e 5 13
e 5 15
e 5 16
e 5 17
e 5 18
e 5 19
e 5 20
e 5 21
e 5 22
e 5 25
e 5 26
e 5 28
e 5 30
e 5 31
e 5 32
e 5 33
e 5 34
e 5 36
e 5 37
e 5 38
e 5 40
e 5 41
e 5 42
e 5 43
e 5 44
e 5 45
e 5 46
e 5 47
e 5 48
e 5 49
e 5 50
e 5 51
e 5 52
e 5 53
e 5 54
e 5 55
e 5 56
e 5 57
e 5 58
e 5 59
e 5 60
e 5 61
e 5 62
e 5 63
e 5 64
e 5 65
e 5 66
e 5 67
e 5 68
e 5 69
e 5 70
e 5 71
e 5 74
e 5 75
e 5 76
e 5 77
e 5 79
e 5 83
e 5 84
e 5 85
e 5 86
e 5 88
e 5 92
e 5 93
e 5 95
e 5 96
e 5 97
e 5 98
e 5 99
e 5 100
e 6 10
e 6 11
e 6 13
e 6 25
e 6 26
e 6 27
e 6 28
e 6 29
e 6 30
e 6 31
e 6 33
e 6 34
e 6 35
e 6 36
e 6 37
e 6 39
e 6 40
e 6 41
e 6 43
e 6 44
e 6 45
e 6 46
e 6 47
e 6 48
e 6 49
e 6 50
e 6 52
e 6 53
e 6 54
e 6 55
e 6 56
e 6 57
e 6 58
e 6 59
e 6 60
e 6 61
e 6 62
e 6 63
e 6 64
e 6 65
e 6 66
e 6 67
e 6 68
e 6 69
e 6 70
e 6 71
e 6 74
e 6 75
e 6 76
e 6 77
e 6 85
e 6 86
e 6 87
e 6 94
e 6 97
e 6 98
e 6 99
e 6 100
e 7 8
e 7 9
e 7 10
e 7 11
e 7 13
e 7 17
e 7 18
e 7 19
e 7 20
e 7 21
e 7 22
e 7 24
e 7 25
e 7 27
e 7 29
e 7 30
e 7 31
e 7 32
e 7 33
e 7 34
e 7 35
e 7 36
e 7 37
e 7 38
e 7 39
e 7 40
e 7 41
e 7 42
e 7 43
e 7 45
e 7 46
e 7 47
e 7 48
e 7 49
e 7 50
e 7 51
e 7 52
e 7 53
e 7 54
e 7 55
e 7 56
e 7 57
e 7 58
e 7 59
e 7 60
e 7 61
e 7 62
e 7 64
e 7 65
e 7 66
e 7 67
e 7 68
e 7 69
e 7 70
e 7 71
e 7 72
e 7 73
e 7 74
e 7 75
e 7 76
e 7 77
e 7 78
e 7 79
e 7 80
e 7 81
e 7 82
e 7 83
e 7 84
e 7 85
e 7 86
e 7 87
e 7 88
e 7 89
e 7 90
e 7 91
e 7 92
e 7 93
e 7 94
e 7 95
e 7 96
e 7 97
e 7 100
e 8 9
e 8 10
e 8 11
e 8 12
e 8 13
e 8 14
e 8 19
e 8 21
e 8 23
e 8 27
e 8 29
e 8 30
e 8 31
e 8 32
e 8 33
e 8 34
e 8 35
e 8 36
e 8 37
e 8 38
e 8 39
e 8 40
e 8 41
e 8 42
e 8 43
e 8 46
e 8 47
e 8 48
e 8 50
e 8 51
e 8 52
e 8 53
e 8 54
e 8 55
e 8 56
e 8 57
e 8 58
e 8 59
e 8 60
e 8 61
e 8 62
e 8 63
e 8 64
e 8 65
e 8 66
e 8 67
e 8 68
e 8 69
e 8 70
e 8 71
e 8 72
e 8 73
e 8 74
e 8 75
e 8 76
e 8 77
e 8 78
e 8 79
e 8 80
e 8 81
e 8 82
e 8 83
e 8 84
e 8 85
e 8 86
e 8 87
e 8 88
e 8 89
e 8 90
e 8 91
e 8 92
e 8 93
e 8 94
e 8 95
e 8 96
e 8 97
e 8 98
e 8 100
e 9 10
e 9 11
e 9 12
e 9 13
e 9 14
e 9 15
e 9 16
e 9 17
e 9 18
e 9 20
e 9 21
e 9 22
e 9 27
e 9 28
e 9 29
e 9 30
e 9 32
e 9 33
e 9 34
e 9 35
e 9 37
e 9 38
e 9 39
e 9 40
e 9 41
e 9 43
e 9 45
e 9 46
e 9 47
e 9 48
e 9 50
e 9 51
e 9 53
e 9 54
e 9 55
e 9 57
e 9 58
e 9 59
e 9 60
e 9 61
e 9 62
e 9 63
e 9 64
e 9 65
e 9 66
e 9 67
e 9 69
e 9 70
e 9 71
e 9 72
e 9 73
e 9 74
e 9 75
e 9 76
e 9 77
e 9 78
e 9 79
e 9 80
e 9 81
e 9 82
e 9 83
e 9 84
e 9 85
e 9 87
e 9 88
e 9 89
e 9 90
e 9 91
e 9 93
e 9 94
e 9 95
e 9 97
e 9 98
e 9 99
e 9 100
e 10 11
e 10 12
e 10 13
e 10 14
e 10 16
e 10 18
e 10 19
e 10 20
e 10 21
e 10 22
e 10 25
e 10 27
e 10 29
e 10 30
e 10 32
e 10 33
e 10 35
e 10 36
e 10 37
e 10 38
e 10 40
e 10 43
e 10 44
e 10 45
e 10 48
e 10 52
e 10 53
e 10 54
e 10 55
e 10 56
e 10 57
e 10 58
e 10 59
e 10 60
e 10 61
e 10 62
e 10 63
e 10 64
e 10 74
e 10 75
e 10 76
e 10 77
e 10 78
e 10 79
e 10 80
e 10 81
e 10 82
e 10 88
e 10 89
e 10 94
e 10 95
e 10 97
e 10 98
e 10 99
e 10 100
e 11 12
e 11 13
e 11 14
e 11 15
e 11 16
e 11 17
e 11 18
e 11 19
e 11 20
e 11 21
e 11 22
e 11 29
e 11 30
e 11 31
e 11 32
e 11 33
e 11 34
e 11 35
e 11 36
e 11 37
e 11 38
e 11 39
e 11 40
e 11 41
e 11 42
e 11 43
e 11 44
e 11 45
e 11 46
e 11 54
e 11 55
e 11 56
e 11 57
e 11 58
e 11 59
e 11 60
e 11 61
e 11 62
e 11 63
e 11 66
e 11 67
e 11 74
e 11 75
e 11 76
e 11 77
e 11 78
e 11 79
e 11 80
e 11 81
e 11 82
e 11 88
e 11 89
e 11 90
e 11 91
e 11 93
e 11 94
e 11 96
e 11 97
e 11 98
e 11 99
e 11 100
e 12 23
e 12 24
e 12 25
e 12 28
e 12 29
e 12 30
e 12 32
e 12 34
e 12 35
e 12 36
e 12 37
e 12 38
e 12 39
e 12 41
e 12 42
e 12 43
e 12 44
e 12 45
e 12 46
e 12 47
e 12 48
e 12 49
e 12 50
e 12 51
e 12 52
e 12 53
e 12 54
e 12 55
e 12 56
e 12 57
e 12 58
e 12 59
e 12 60
e 12 61
e 12 62
e 12 63
e 12 64
e 12 65
e 12 66
e 12 67
e 12 68
e 12 69
e 12 70
e 12 71
e 12 72
e 12 73
e 12 74
e 12 75
e 12 76
e 12 77
e 12 78
e 12 79
e 12 80
e 12 81
e 12 82
e 12 87
e 12 88
e 12 89
e 12 90
e 12 91
e 12 92
e 12 93
e 12 94
e 12 95
e 12 96
e 12 97
e 12 98
e 12 100
e 13 17
e 13 18
e 13 19
e 13 20
e 13 21
e 13 22
e 13 24
e 13 25
e 13 27
e 13 28
e 13 29
e 13 30
e 13 31
e 13 32
e 13 33
e 13 34
e 13 35
e 13 36
e 13 37
e 13 38
e 13 39
e 13 40
e 13 43
e 13 44
e 13 45
e 13 47
e 13 49
e 13 50
e 13 51
e 13 52
e 13 53
e 13 54
e 13 55
e 13 56
e 13 57
e 13 58
e 13 59
e 13 60
e 13 61
e 13 62
e 13 63
e 13 64
e 13 65
e 13 66
e 13 67
e 13 68
e 13 69
e 13 70
e 13 71
e 13 72
e 13 73
e 13 74
e 13 75
e 13 76
e 13 77
e 13 78
e 13 79
e 13 81
e 13 82
e 13 83
e 13 84
e 13 85
e 13 86
e 13 87
e 13 88
e 13 89
e 13 90
e 13 92
e 13 93
e 13 94
e 13 95
e 13 96
e 13 97
e 13 98
e 13 99
e 13 100
e 14 15
e 14 21
e 14 22
e 14 23
e 14 24
e 14 27
e 14 28
e 14 31
e 14 32
e 14 33
e 14 35
e 14 36
e 14 37
e 14 38
e 14 39
e 14 40
e 14 41
e 14 42
e 14 43
e 14 44
e 14 45
e 14 46
e 14 47
e 14 48
e 14 49
e 14 50
e 14 51
e 14 52
e 14 53
e 14 54
e 14 55
e 14 56
e 14 57
e 14 58
e 14 59
e 14 60
e 14 61
e 14 62
e 14 63
e 14 64
e 14 65
e 14 67
e 14 68
e 14 69
e 14 70
e 14 71
e 14 72
e 14 73
e 14 74
e 14 75
e 14 76
e 14 77
e 14 78
e 14 79
e 14 80
e 14 81
e 14 82
e 14 83
e 14 84
e 14 85
e 14 87
e 14 89
e 14 90
e 14 91
e 14 93
e 14 94
e 14 95
e 14 96
e 14 98
e 14 99
e 14 100
e 15 21
e 15 22
e 15 23
e 15 24
e 15 28
e 15 31
e 15 32
e 15 33
e 15 34
e 15 35
e 15 36
e 15 37
e 15 38
e 15 39
e 15 40
e 15 41
e 15 42
e 15 43
e 15 44
e 15 45
e 15 46
e 15 47
e 15 48
e 15 49
e 15 50
e 15 51
e 15 52
e 15 53
e 15 54
e 15 55
e 15 56
e 15 57
e 15 59
e 15 63
e 15 75
e 15 77
e 15 78
e 15 79
e 15 80
e 15 81
e 15 82
e 15 87
e 15 88
e 15 89
e 15 90
e 15 91
e 15 92
e 15 95
e 15 96
e 15 97
e 15 99
e 15 100
e 16 17
e 16 18
e 16 19
e 16 21
e 16 22
e 16 23
e 16 24
e 16 27
e 16 28
e 16 32
e 16 33
e 16 34
e 16 35
e 16 36
e 16 37
e 16 38
e 16 39
e 16 40
e 16 42
e 16 43
e 16 44
e 16 45
e 16 46
e 16 47
e 16 48
e 16 49
e 16 50
e 16 51
e 16 52
e 16 53
e 16 55
e 16 56
e 16 58
e 16 59
e 16 60
e 16 61
e 16 62
e 16 63
e 16 64
e 16 65
e 16 66
e 16 67
e 16 68
e 16 69
e 16 70
e 16 71
e 16 72
e 16 73
e 16 74
e 16 75
e 16 76
e 16 77
e 16 78
e 16 79
e 16 80
e 16 81
e 16 82
e 16 87
e 16 88
e 16 89
e 16 90
e 16 91
e 16 92
e 16 95
e 16 96
e 16 99
e 16 100
e 17 19
e 17 22
e 17 23
e 17 27
e 17 28
e 17 29
e 17 31
e 17 32
e 17 33
e 17 34
e 17 35
e 17 36
e 17 37
e 17 38
e 17 39
e 17 40
e 17 41
e 17 42
e 17 43
e 17 44
e 17 45
e 17 46
e 17 47
e 17 48
e 17 49
e 17 50
e 17 51
e 17 52
e 17 53
e 17 54
e 17 55
e 17 56
e 17 57
e 17 58
e 17 59
e 17 60
e 17 61
e 17 62
e 17 63
e 17 64
e 17 65
e 17 66
e 17 67
e 17 68
e 17 69
e 17 71
e 17 72
e 17 73
e 17 74
e 17 75
e 17 76
e 17 77
e 17 78
e 17 79
e 17 80
e 17 81
e 17 82
e 17 83
e 17 86
e 17 87
e 17 88
e 17 89
e 17 90
e 17 91
e 17 92
e 17 95
e 17 96
e 17 98
e 17 99
e 17 100
e 18 19
e 18 21
e 18 22
e 18 24
e 18 28
e 18 31
e 18 32
e 18 33
e 18 34
e 18 35
e 18 36
e 18 37
e 18 38
e 18 39
e 18 40
e 18 41
e 18 42
e 18 43
e 18 44
e 18 45
e 18 46
e 18 47
e 18 48
e 18 51
e 18 52
e 18 53
e 18 54
e 18 55
e 18 56
e 18 57
e 18 58
e 18 59
e 18 60
e 18 61
e 18 62
e 18 63
e 18 64
e 18 65
e 18 66
e 18 67
e 18 68
e 18 69
e 18 70
e 18 71
e 18 72
e 18 73
e 18 74
e 18 75
e 18 76
e 18 77
e 18 78
e 18 79
e 18 80
e 18 82
e 18 83
e 18 84
e 18 85
e 18 86
e 18 88
e 18 89
e 18 90
e 18 91
e 18 92
e 18 95
e 18 96
e 18 97
e 18 98
e 18 99
e 18 100
e 19 20
e 19 21
e 19 22
e 19 23
e 19 24
e 19 27
e 19 28
e 19 31
e 19 32
e 19 33
e 19 34
e 19 35
e 19 36
e 19 37
e 19 39
e 19 40
e 19 41
e 19 42
e 19 43
e 19 44
e 19 45
e 19 47
e 19 48
e 19 49
e 19 50
e 19 51
e 19 52
e 19 53
e 19 54
e 19 55
e 19 56
e 19 57
e 19 58
e 19 59
e 19 60
e 19 61
e 19 64
e 19 65
e 19 66
e 19 67
e 19 68
e 19 69
e 19 70
e 19 71
e 19 72
e 19 73
e 19 74
e 19 75
e 19 76
e 19 77
e 19 78
e 19 79
e 19 80
e 19 82
e 19 83
e 19 84
e 19 85
e 19 86
e 19 88
e 19 90
e 19 91
e 19 92
e 19 95
e 19 96
e 19 97
e 19 98
e 20 21
e 20 22
e 20 23
e 20 27
e 20 28
e 20 31
e 20 32
e 20 33
e 20 34
e 20 35
e 20 36
e 20 37
e 20 38
e 20 39
e 20 40
e 20 41
e 20 42
e 20 43
e 20 44
e 20 45
e 20 46
e 20 47
e 20 48
e 20 49
e 20 50
e 20 51
e 20 52
e 20 53
e 20 54
e 20 55
e 20 56
e 20 57
e 20 58
e 20 59
e 20 60
e 20 61
e 20 62
e 20 63
e 20 64
e 20 65
e 20 66
e 20 67
e 20 68
e 20 69
e 20 70
e 20 71
e 20 72
e 20 73
e 20 74
e 20 75
e 20 76
e 20 77
e 20 78
e 20 79
e 20 80
e 20 82
e 20 87
e 20 88
e 20 89
e 20 90
e 20 91
e 20 92
e 20 93
e 20 95
e 20 96
e 20 97
e 20 98
e 20 99
e 20 100
e 21 23
e 21 24
e 21 25
e 21 27
e 21 28
e 21 29
e 21 31
e 21 32
e 21 33
e 21 34
e 21 35
e 21 36
e 21 37
e 21 38
e 21 39
e 21 40
e 21 42
e 21 43
e 21 44
e 21 45
e 21 46
e 21 47
e 21 48
e 21 49
e 21 50
e 21 51
e 21 52
e 21 53
e 21 54
e 21 55
e 21 56
e 21 57
e 21 58
e 21 59
e 21 60
e 21 61
e 21 62
e 21 74
e 21 75
e 21 76
e 21 77
e 21 78
e 21 79
e 21 80
e 21 81
e 21 82
e 21 87
e 21 88
e 21 89
e 21 91
e 21 93
e 21 95
e 21 96
e 21 97
e 21 98
e 21 99
e 21 100
e 22 23
e 22 24
e 22 25
e 22 27
e 22 28
e 22 31
e 22 32
e 22 33
e 22 34
e 22 35
e 22 36
e 22 37
e 22 38
e 22 39
e 22 40
e 22 41
e 22 42
e 22 43
e 22 44
e 22 45
e 22 46
e 22 47
e 22 48
e 22 49
e 22 50
e 22 51
e 22 52
e 22 53
e 22 54
e 22 55
e 22 56
e 22 57
e 22 58
e 22 60
e 22 61
e 22 74
e 22 75
e 22 76
e 22 77
e 22 78
e 22 79
e 22 80
e 22 81
e 22 82
e 22 87
e 22 88
e 22 90
e 22 91
e 22 92
e 22 93
e 22 95
e 22 96
e 22 97
e 22 99
e 23 24
e 23 27
e 23 28
e 23 31
e 23 32
e 23 33
e 23 34
e 23 35
e 23 36
e 23 37
e 23 38
e 23 39
e 23 40
e 23 42
e 23 43
e 23 44
e 23 45
e 23 46
e 23 47
e 23 48
e 23 49
e 23 50
e 23 51
e 23 52
e 23 53
e 23 54
e 23 55
e 23 56
e 23 58
e 23 59
e 23 74
e 23 75
e 23 76
e 23 77
e 23 78
e 23 79
e 23 81
e 23 82
e 23 88
e 23 90
e 23 91
e 23 92
e 23 93
e 23 94
e 23 97
e 23 98
e 23 99
e 23 100
e 24 27
e 24 28
e 24 31
e 24 38
e 24 40
e 24 41
e 24 42
e 24 43
e 24 44
e 24 45
e 24 46
e 24 47
e 24 48
e 24 49
e 24 50
e 24 51
e 24 52
e 24 53
e 24 54
e 24 55
e 24 56
e 24 57
e 24 58
e 24 59
e 24 64
e 24 74
e 24 75
e 24 76
e 24 77
e 24 78
e 24 80
e 24 81
e 24 82
e 24 87
e 24 88
e 24 89
e 24 91
e 24 92
e 24 94
e 24 95
e 24 97
e 24 98
e 24 100
e 25 26
e 25 28
e 25 29
e 25 30
e 25 31
e 25 39
e 25 40
e 25 41
e 25 42
e 25 43
e 25 44
e 25 45
e 25 47
e 25 48
e 25 49
e 25 50
e 25 51
e 25 52
e 25 53
e 25 54
e 25 55
e 25 56
e 25 57
e 25 58
e 25 59
e 25 60
e 25 61
e 25 62
e 25 63
e 25 64
e 25 65
e 25 66
e 25 67
e 25 68
e 25 69
e 25 70
e 25 71
e 25 74
e 25 75
e 25 76
e 25 77
e 25 79
e 25 80
e 25 81
e 25 82
e 25 85
e 25 87
e 25 88
e 25 89
e 25 91
e 25 92
e 25 93
e 25 94
e 25 95
e 25 96
e 25 97
e 25 98
e 25 99
e 25 100
e 26 27
e 26 28
e 26 29
e 26 30
e 26 31
e 26 38
e 26 40
e 26 41
e 26 42
e 26 43
e 26 44
e 26 45
e 26 46
e 26 47
e 26 48
e 26 49
e 26 50
e 26 51
e 26 53
e 26 54
e 26 55
e 26 56
e 26 57
e 26 58
e 26 59
e 26 60
e 26 61
e 26 62
e 26 63
e 26 64
e 26 65
e 26 66
e 26 67
e 26 68
e 26 69
e 26 70
e 26 71
e 26 73
e 26 74
e 26 75
e 26 77
e 26 79
e 26 81
e 26 84
e 26 87
e 26 88
e 26 89
e 26 90
e 26 91
e 26 92
e 26 93
e 26 94
e 26 95
e 26 97
e 26 98
e 26 99
e 26 100
e 27 28
e 27 29
e 27 30
e 27 31
e 27 38
e 27 39
e 27 40
e 27 41
e 27 42
e 27 44
e 27 45
e 27 46
e 27 47
e 27 48
e 27 49
e 27 50
e 27 51
e 27 52
e 27 53
e 27 54
e 27 55
e 27 56
e 27 57
e 27 58
e 27 59
e 27 60
e 27 61
e 27 62
e 27 63
e 27 64
e 27 65
e 27 66
e 27 67
e 27 68
e 27 69
e 27 70
e 27 71
e 27 72
e 27 73
e 27 75
e 27 76
e 27 77
e 27 78
e 27 79
e 27 80
e 27 81
e 27 82
e 27 87
e 27 88
e 27 89
e 27 90
e 27 91
e 27 92
e 27 93
e 27 95
e 27 96
e 27 97
e 27 98
e 27 99
e 28 30
e 28 31
e 28 38
e 28 39
e 28 40
e 28 41
e 28 42
e 28 43
e 28 44
e 28 45
e 28 46
e 28 47
e 28 48
e 28 49
e 28 50
e 28 53
e 28 54
e 28 55
e 28 56
e 28 57
e 28 58
e 28 59
e 28 60
e 28 61
e 28 62
e 28 63
e 28 64
e 28 65
e 28 66
e 28 67
e 28 68
e 28 69
e 28 70
e 28 71
e 28 75
e 28 76
e 28 77
e 28 78
e 28 79
e 28 81
e 28 82
e 28 83
e 28 84
e 28 85
e 28 86
e 28 87
e 28 88
e 28 89
e 28 90
e 28 91
e 28 92
e 28 93
e 28 94
e 28 95
e 28 96
e 28 97
e 28 98
e 28 99
e 28 100
e 29 30
e 29 38
e 29 39
e 29 40
e 29 41
e 29 42
e 29 43
e 29 44
e 29 45
e 29 46
e 29 47
e 29 48
e 29 49
e 29 50
e 29 51
e 29 52
e 29 53
e 29 54
e 29 55
e 29 56
e 29 57
e 29 58
e 29 59
e 29 60
e 29 61
e 29 62
e 29 63
e 29 64
e 29 66
e 29 67
e 29 68
e 29 69
e 29 70
e 29 71
e 29 72
e 29 74
e 29 75
e 29 76
e 29 77
e 29 79
e 29 80
e 29 81
e 29 82
e 29 86
e 29 87
e 29 88
e 29 89
e 29 90
e 29 91
e 29 92
e 29 93
e 29 94
e 29 95
e 29 96
e 29 97
e 29 99
e 29 100
e 30 31
e 30 38
e 30 39
e 30 40
e 30 41
e 30 42
e 30 43
e 30 44
e 30 45
e 30 46
e 30 49
e 30 50
e 30 51
e 30 52
e 30 53
e 30 54
e 30 55
e 30 56
e 30 57
e 30 58
e 30 59
e 30 60
e 30 61
e 30 62
e 30 63
e 30 64
e 30 65
e 30 66
e 30 67
e 30 69
e 30 70
e 30 71
e 30 75
e 30 76
e 30 77
e 30 78
e 30 79
e 30 80
e 30 81
e 30 82
e 30 87
e 30 88
e 30 89
e 30 90
e 30 91
e 30 92
e 30 94
e 30 95
e 30 96
e 30 97
e 30 98
e 30 99
e 30 100
e 31 39
e 31 40
e 31 41
e 31 42
e 31 43
e 31 44
e 31 45
e 31 46
e 31 47
e 31 48
e 31 49
e 31 50
e 31 51
e 31 52
e 31 53
e 31 54
e 31 55
e 31 56
e 31 57
e 31 58
e 31 59
e 31 61
e 31 62
e 31 63
e 31 64
e 31 65
e 31 67
e 31 68
e 31 69
e 31 71
e 31 72
e 31 74
e 31 75
e 31 76
e 31 77
e 31 78
e 31 79
e 31 80
e 31 81
e 31 82
e 31 86
e 31 88
e 31 89
e 31 90
e 31 91
e 31 92
e 31 93
e 31 94
e 31 95
e 31 96
e 31 97
e 31 98
e 31 99
e 31 100
e 32 33
e 32 36
e 32 37
e 32 39
e 32 40
e 32 41
e 32 45
e 32 49
e 32 65
e 32 67
e 32 68
e 32 69
e 32 70
e 32 71
e 32 73
e 32 76
e 32 77
e 32 79
e 32 80
e 32 81
e 32 82
e 32 86
e 32 88
e 32 89
e 32 90
e 32 91
e 32 92
e 32 93
e 32 94
e 32 96
e 32 97
e 32 98
e 32 100
e 33 35
e 33 36
e 33 37
e 33 38
e 33 39
e 33 40
e 33 41
e 33 65
e 33 66
e 33 67
e 33 68
e 33 69
e 33 70
e 33 71
e 33 74
e 33 88
e 33 89
e 33 90
e 33 91
e 33 92
e 33 93
e 33 97
e 33 98
e 33 99
e 33 100
e 34 35
e 34 37
e 34 38
e 34 39
e 34 40
e 34 41
e 34 65
e 34 66
e 34 68
e 34 69
e 34 70
e 34 71
e 34 87
e 34 88
e 34 89
e 34 90
e 34 91
e 34 92
e 34 93
e 34 94
e 34 95
e 34 96
e 34 97
e 34 98
e 34 99
e 35 36
e 35 37
e 35 39
e 35 40
e 35 55
e 35 65
e 35 67
e 35 68
e 35 69
e 35 70
e 35 71
e 35 87
e 35 89
e 35 90
e 35 91
e 35 92
e 35 93
e 35 94
e 35 95
e 35 96
e 35 97
e 35 98
e 35 99
e 35 100
e 36 38
e 36 39
e 36 40
e 36 41
e 36 46
e 36 65
e 36 66
e 36 67
e 36 68
e 36 69
e 36 70
e 36 73
e 36 74
e 36 87
e 36 88
e 36 89
e 36 90
e 36 91
e 36 92
e 36 93
e 36 94
e 36 95
e 36 96
e 36 97
e 36 99
e 36 100
e 37 38
e 37 39
e 37 40
e 37 41
e 37 66
e 37 67
e 37 68
e 37 69
e 37 70
e 37 73
e 37 74
e 37 87
e 37 88
e 37 89
e 37 90
e 37 91
e 37 92
e 37 93
e 37 94
e 37 95
e 37 96
e 37 97
e 37 98
e 37 99
e 37 100
e 38 40
e 38 41
e 38 42
e 38 43
e 38 45
e 38 46
e 38 47
e 38 50
e 38 51
e 38 52
e 38 53
e 38 54
e 38 56
e 38 57
e 38 58
e 38 59
e 38 60
e 38 61
e 38 63
e 38 64
e 38 65
e 38 68
e 38 69
e 38 70
e 38 71
e 38 74
e 38 87
e 38 91
e 38 96
e 38 97
e 38 98
e 38 99
e 38 100
e 39 41
e 39 42
e 39 43
e 39 44
e 39 45
e 39 46
e 39 47
e 39 48
e 39 49
e 39 50
e 39 51
e 39 52
e 39 53
e 39 54
e 39 56
e 39 57
e 39 58
e 39 59
e 39 60
e 39 61
e 39 62
e 39 63
e 39 64
e 39 65
e 39 68
e 39 69
e 39 70
e 39 71
e 39 87
e 39 88
e 39 94
e 39 95
e 39 96
e 39 97
e 39 98
e 39 99
e 39 100
e 40 41
e 40 42
e 40 43
e 40 44
e 40 45
e 40 46
e 40 47
e 40 48
e 40 49
e 40 50
e 40 51
e 40 52
e 40 53
e 40 56
e 40 57
e 40 58
e 40 59
e 40 60
e 40 62
e 40 63
e 40 64
e 40 65
e 40 67
e 40 68
e 40 69
e 40 70
e 40 74
e 40 87
e 40 88
e 40 92
e 40 94
e 40 95
e 40 97
e 40 98
e 41 44
e 41 45
e 41 46
e 41 47
e 41 48
e 41 51
e 41 52
e 41 53
e 41 54
e 41 57
e 41 58
e 41 60
e 41 61
e 41 62
e 41 64
e 41 65
e 41 66
e 41 67
e 41 68
e 41 69
e 41 70
e 41 71
e 41 74
e 41 87
e 41 88
e 41 89
e 41 90
e 41 91
e 41 92
e 41 93
e 41 94
e 41 95
e 41 98
e 42 43
e 42 44
e 42 45
e 42 46
e 42 47
e 42 48
e 42 49
e 42 50
e 42 51
e 42 52
e 42 53
e 42 54
e 42 56
e 42 57
e 42 58
e 42 59
e 42 60
e 42 61
e 42 62
e 42 64
e 42 65
e 42 66
e 42 67
e 42 68
e 42 69
e 42 71
e 42 87
e 42 90
e 42 91
e 42 92
e 42 93
e 42 94
e 42 95
e 42 96
e 42 97
e 42 98
e 43 46
e 43 47
e 43 48
e 43 49
e 43 50
e 43 52
e 43 54
e 43 56
e 43 58
e 43 59
e 43 61
e 43 62
e 43 63
e 43 64
e 43 65
e 43 67
e 43 68
e 43 69
e 43 70
e 43 71
e 43 88
e 43 90
e 43 91
e 43 92
e 43 93
e 43 94
e 43 97
e 43 98
e 44 45
e 44 46
e 44 47
e 44 48
e 44 49
e 44 50
e 44 51
e 44 52
e 44 53
e 44 54
e 44 56
e 44 57
e 44 58
e 44 59
e 44 60
e 44 61
e 44 62
e 44 63
e 44 64
e 44 65
e 44 66
e 44 67
e 44 68
e 44 69
e 44 70
e 44 71
e 44 87
e 44 90
e 44 91
e 44 92
e 44 93
e 44 97
e 44 98
e 45 46
e 45 47
e 45 48
e 45 49
e 45 50
e 45 51
e 45 52
e 45 53
e 45 54
e 45 56
e 45 57
e 45 60
e 45 61
e 45 62
e 45 63
e 45 64
e 45 65
e 45 66
e 45 67
e 45 69
e 45 70
e 45 71
e 45 87
e 45 88
e 45 89
e 45 90
e 45 91
e 45 92
e 45 93
e 45 97
e 45 98
e 46 47
e 46 48
e 46 49
e 46 50
e 46 51
e 46 52
e 46 53
e 46 54
e 46 56
e 46 57
e 46 58
e 46 59
e 46 60
e 46 61
e 46 63
e 46 64
e 46 65
e 46 66
e 46 67
e 46 68
e 46 69
e 46 87
e 46 88
e 46 89
e 46 90
e 46 91
e 46 98
e 47 49
e 47 51
e 47 52
e 47 54
e 47 55
e 47 56
e 47 57
e 47 58
e 47 59
e 47 60
e 47 61
e 47 62
e 47 63
e 47 64
e 47 65
e 47 66
e 47 67
e 47 68
e 47 69
e 47 70
e 47 71
e 47 73
e 47 76
e 47 84
e 47 88
e 47 90
e 47 91
e 47 95
e 47 98
e 48 49
e 48 50
e 48 51
e 48 52
e 48 54
e 48 56
e 48 57
e 48 58
e 48 59
e 48 60
e 48 61
e 48 62
e 48 63
e 48 64
e 48 65
e 48 66
e 48 67
e 48 68
e 48 69
e 48 70
e 48 83
e 48 84
e 48 85
e 48 87
e 48 88
e 48 90
e 48 91
e 48 98
e 48 100
e 49 50
e 49 51
e 49 52
e 49 54
e 49 56
e 49 57
e 49 58
e 49 59
e 49 60
e 49 61
e 49 62
e 49 63
e 49 64
e 49 65
e 49 66
e 49 67
e 49 68
e 49 69
e 49 70
e 49 71
e 49 73
e 49 75
e 49 76
e 49 77
e 49 78
e 49 79
e 49 80
e 49 81
e 49 82
e 49 83
e 49 85
e 49 86
e 49 87
e 49 88
e 49 89
e 49 90
e 49 91
e 49 92
e 49 93
e 49 94
e 49 95
e 49 96
e 49 97
e 49 99
e 49 100
e 50 51
e 50 52
e 50 53
e 50 54
e 50 56
e 50 57
e 50 58
e 50 59
e 50 60
e 50 61
e 50 62
e 50 64
e 50 65
e 50 66
e 50 67
e 50 68
e 50 69
e 50 70
e 50 71
e 50 73
e 50 75
e 50 76
e 50 77
e 50 78
e 50 79
e 50 80
e 50 81
e 50 82
e 50 83
e 50 84
e 50 85
e 50 86
e 50 87
e 50 88
e 50 89
e 50 90
e 50 91
e 50 92
e 50 93
e 50 94
e 50 95
e 50 96
e 50 97
e 50 98
e 50 99
e 50 100
e 51 52
e 51 54
e 51 56
e 51 57
e 51 58
e 51 59
e 51 60
e 51 61
e 51 62
e 51 64
e 51 75
e 51 76
e 51 77
e 51 78
e 51 79
e 51 80
e 51 82
e 51 86
e 51 87
e 51 88
e 51 89
e 51 90
e 51 91
e 51 92
e 51 93
e 51 94
e 51 95
e 51 96
e 51 98
e 51 99
e 51 100
e 52 53
e 52 54
e 52 56
e 52 57
e 52 58
e 52 59
e 52 60
e 52 61
e 52 62
e 52 63
e 52 64
e 52 65
e 52 74
e 52 76
e 52 77
e 52 78
e 52 79
e 52 80
e 52 81
e 52 82
e 52 86
e 52 87
e 52 88
e 52 89
e 52 91
e 52 92
e 52 93
e 52 94
e 52 95
e 52 96
e 52 98
e 52 99
e 52 100
e 53 54
e 53 56
e 53 57
e 53 58
e 53 59
e 53 60
e 53 61
e 53 62
e 53 63
e 53 64
e 53 65
e 53 75
e 53 76
e 53 77
e 53 78
e 53 79
e 53 80
e 53 81
e 53 88
e 53 89
e 53 90
e 53 91
e 53 92
e 53 93
e 53 94
e 53 95
e 53 96
e 53 97
e 53 100
e 54 56
e 54 57
e 54 58
e 54 59
e 54 60
e 54 61
e 54 62
e 54 63
e 54 64
e 54 65
e 54 79
e 54 80
e 54 81
e 54 82
e 54 83
e 54 84
e 54 85
e 54 88
e 54 89
e 54 90
e 54 91
e 54 92
e 54 93
e 54 94
e 54 97
e 54 99
e 54 100
e 55 56
e 55 57
e 55 58
e 55 59
e 55 60
e 55 61
e 55 62
e 55 63
e 55 64
e 55 65
e 55 79
e 55 80
e 55 81
e 55 82
e 55 83
e 55 84
e 55 85
e 55 86
e 55 87
e 55 88
e 55 89
e 55 90
e 55 91
e 55 92
e 55 93
e 55 94
e 55 95
e 55 96
e 55 97
e 56 57
e 56 58
e 56 59
e 56 60
e 56 61
e 56 62
e 56 63
e 56 64
e 56 65
e 56 75
e 56 76
e 56 78
e 56 79
e 56 80
e 56 81
e 56 82
e 56 83
e 56 84
e 56 85
e 56 86
e 56 87
e 56 88
e 56 89
e 56 90
e 56 91
e 56 92
e 56 93
e 56 94
e 56 95
e 56 96
e 56 99
e 56 100
e 57 58
e 57 59
e 57 60
e 57 61
e 57 63
e 57 64
e 57 65
e 57 75
e 57 76
e 57 77
e 57 78
e 57 79
e 57 80
e 57 81
e 57 82
e 57 83
e 57 84
e 57 85
e 57 86
e 57 87
e 57 88
e 57 89
e 57 90
e 57 91
e 57 92
e 57 93
e 57 94
e 57 95
e 57 96
e 57 99
e 58 59
e 58 60
e 58 61
e 58 62
e 58 63
e 58 64
e 58 65
e 58 75
e 58 76
e 58 79
e 58 80
e 58 81
e 58 82
e 58 83
e 58 84
e 58 85
e 58 86
e 58 87
e 58 88
e 58 89
e 58 90
e 58 91
e 58 92
e 58 94
e 58 95
e 58 96
e 58 99
e 58 100
e 59 60
e 59 61
e 59 62
e 59 63
e 59 64
e 59 65
e 59 72
e 59 75
e 59 76
e 59 77
e 59 78
e 59 79
e 59 81
e 59 82
e 59 83
e 59 84
e 59 85
e 59 86
e 59 87
e 59 88
e 59 90
e 59 91
e 59 92
e 59 93
e 59 94
e 59 95
e 59 96
e 59 97
e 59 100
e 60 61
e 60 62
e 60 63
e 60 64
e 60 65
e 60 75
e 60 76
e 60 77
e 60 78
e 60 79
e 60 80
e 60 81
e 60 82
e 60 83
e 60 84
e 60 85
e 60 86
e 60 87
e 60 88
e 60 89
e 60 90
e 60 91
e 60 93
e 60 94
e 60 96
e 60 100
e 61 62
e 61 63
e 61 64
e 61 65
e 61 75
e 61 76
e 61 77
e 61 78
e 61 80
e 61 81
e 61 82
e 61 83
e 61 84
e 61 85
e 61 87
e 61 88
e 61 90
e 61 91
e 61 92
e 61 93
e 61 94
e 61 95
e 61 97
e 61 100
e 62 63
e 62 64
e 62 65
e 62 75
e 62 76
e 62 77
e 62 78
e 62 79
e 62 80
e 62 81
e 62 82
e 62 83
e 62 84
e 62 85
e 62 87
e 62 88
e 62 89
e 62 90
e 62 91
e 62 92
e 62 95
e 62 96
e 62 99
e 63 64
e 63 65
e 63 72
e 63 73
e 63 74
e 63 75
e 63 76
e 63 77
e 63 78
e 63 79
e 63 80
e 63 81
e 63 82
e 63 83
e 63 84
e 63 85
e 63 86
e 63 87
e 63 88
e 63 89
e 63 90
e 63 91
e 63 92
e 63 93
e 63 95
e 63 96
e 63 99
e 63 100
e 64 65
e 64 72
e 64 73
e 64 74
e 64 75
e 64 76
e 64 77
e 64 78
e 64 79
e 64 80
e 64 81
e 64 82
e 64 85
e 64 86
e 64 87
e 64 88
e 64 89
e 64 90
e 64 92
e 64 93
e 64 94
e 64 95
e 64 97
e 64 98
e 64 99
e 64 100
e 65 72
e 65 73
e 65 75
e 65 76
e 65 77
e 65 78
e 65 79
e 65 80
e 65 82
e 65 83
e 65 84
e 65 85
e 65 86
e 65 87
e 65 89
e 65 90
e 65 91
e 65 93
e 65 94
e 65 95
e 65 96
e 65 97
e 65 98
e 65 99
e 65 100
e 66 68
e 66 69
e 66 73
e 66 75
e 66 76
e 66 77
e 66 78
e 66 80
e 66 81
e 66 82
e 66 83
e 66 85
e 66 86
e 66 87
e 66 88
e 66 89
e 66 91
e 66 92
e 66 93
e 66 94
e 66 95
e 66 96
e 66 97
e 66 98
e 66 99
e 66 100
e 67 68
e 67 69
e 67 70
e 67 71
e 67 73
e 67 75
e 67 76
e 67 77
e 67 79
e 67 81
e 67 82
e 67 83
e 67 84
e 67 85
e 67 86
e 67 87
e 67 88
e 67 89
e 67 93
e 67 94
e 67 95
e 67 96
e 67 97
e 67 98
e 67 99
e 68 69
e 68 70
e 68 71
e 68 72
e 68 73
e 68 75
e 68 76
e 68 77
e 68 78
e 68 79
e 68 80
e 68 81
e 68 82
e 68 84
e 68 85
e 68 86
e 68 89
e 68 90
e 68 91
e 68 92
e 68 93
e 68 94
e 68 95
e 68 96
e 68 97
e 68 98
e 68 99
e 68 100
e 69 70
e 69 72
e 69 73
e 69 74
e 69 75
e 69 76
e 69 78
e 69 79
e 69 81
e 69 83
e 69 84
e 69 85
e 69 86
e 69 87
e 69 88
e 69 89
e 69 91
e 69 92
e 69 93
e 69 98
e 69 99
e 70 72
e 70 73
e 70 74
e 70 75
e 70 76
e 70 78
e 70 79
e 70 80
e 70 81
e 70 82
e 70 83
e 70 84
e 70 85
e 70 86
e 70 87
e 70 88
e 70 90
e 70 92
e 70 93
e 70 95
e 70 96
e 70 97
e 70 98
e 71 72
e 71 73
e 71 74
e 71 75
e 71 76
e 71 78
e 71 79
e 71 80
e 71 81
e 71 82
e 71 83
e 71 84
e 71 85
e 71 86
e 71 87
e 71 89
e 71 90
e 71 93
e 71 94
e 71 95
e 71 96
e 71 97
e 71 99
e 72 74
e 72 76
e 72 77
e 72 78
e 72 80
e 72 81
e 72 82
e 72 84
e 72 85
e 72 86
e 72 87
e 72 88
e 72 89
e 72 90
e 72 91
e 72 92
e 72 93
e 72 94
e 72 97
e 72 98
e 72 99
e 73 74
e 73 75
e 73 77
e 73 78
e 73 79
e 73 80
e 73 82
e 73 83
e 73 84
e 73 86
e 73 87
e 73 88
e 73 89
e 73 90
e 73 91
e 73 92
e 73 93
e 73 94
e 73 95
e 73 96
e 73 97
e 73 100
e 74 75
e 74 76
e 74 77
e 74 78
e 74 79
e 74 80
e 74 81
e 74 82
e 74 83
e 74 84
e 74 85
e 74 86
e 74 87
e 74 88
e 74 91
e 74 92
e 74 93
e 74 94
e 74 95
e 74 96
e 74 97
e 74 98
e 74 100
e 75 76
e 75 77
e 75 78
e 75 79
e 75 80
e 75 82
e 75 84
e 75 86
e 75 87
e 75 88
e 75 90
e 75 91
e 75 93
e 75 94
e 75 95
e 75 96
e 75 97
e 75 98
e 75 100
e 76 77
e 76 79
e 76 80
e 76 81
e 76 82
e 76 83
e 76 84
e 76 86
e 76 87
e 76 89
e 76 90
e 76 91
e 76 97
e 76 98
e 76 99
e 76 100
e 77 78
e 77 79
e 77 80
e 77 81
e 77 82
e 77 83
e 77 84
e 77 86
e 77 87
e 77 88
e 77 89
e 77 90
e 77 91
e 77 97
e 77 98
e 77 99
e 77 100
e 78 79
e 78 80
e 78 81
e 78 82
e 78 83
e 78 84
e 78 86
e 78 87
e 78 88
e 78 89
e 78 90
e 78 91
e 78 98
e 78 100
e 79 80
e 79 81
e 79 82
e 79 83
e 79 84
e 79 86
e 79 88
e 79 89
e 79 90
e 79 91
e 79 97
e 79 98
e 79 99
e 80 81
e 80 82
e 80 83
e 80 86
e 80 88
e 80 89
e 80 91
e 80 97
e 80 98
e 80 99
e 81 83
e 81 84
e 81 86
e 81 87
e 81 89
e 81 90
e 81 91
e 81 97
e 81 98
e 81 99
e 82 83
e 82 84
e 82 87
e 82 88
e 82 89
e 82 90
e 82 91
e 82 97
e 82 98
e 82 99
e 83 84
e 83 86
e 83 87
e 83 89
e 83 90
e 83 92
e 83 93
e 83 94
e 83 95
e 83 96
e 83 97
e 83 98
e 84 85
e 84 86
e 84 87
e 84 88
e 84 89
e 84 90
e 84 91
e 84 93
e 84 94
e 84 95
e 84 96
e 84 97
e 84 98
e 84 99
e 84 100
e 85 86
e 85 87
e 85 88
e 85 89
e 85 90
e 85 92
e 85 93
e 85 94
e 85 95
e 85 97
e 85 98
e 85 99
e 86 88
e 86 89
e 86 90
e 86 93
e 86 95
e 86 96
e 86 97
e 86 98
e 86 99
e 86 100
e 87 88
e 87 89
e 87 94
e 87 95
e 87 96
e 87 98
e 87 99
e 87 100
e 88 89
e 88 96
e 88 99
e 89 91
e 89 96
e 89 97
e 89 98
e 90 91
e 90 95
e 90 96
e 90 97
e 90 98
e 90 99
e 90 100
e 91 95
e 91 96
e 91 97
e 91 98
e 91 99
e 92 93
e 92 94
e 92 95
e 92 96
e 92 97
e 92 98
e 93 94
e 93 95
e 93 96
e 93 98
e 93 99
e 94 95
e 94 96
e 94 97
e 94 98
e 95 96
e 95 97
e 95 98
e 95 100
e 96 97
e 96 98
e 96 99
e 97 98
e 97 100
e 98 99
e 98 100
